gen cost
0 1451
1 1451
2 1442
3 1407
4 1404
5 1390
6 1378
7 1370
8 1345
9 1324
10 1318
11 1304
12 1304
13 1304
14 1299
15 1297
16 1297
17 1277
18 1261
19 1261
20 1261
21 1256
22 1244
23 1243
24 1238
25 1230
26 1223
27 1219
28 1219
29 1217
30 1205
31 1202
32 1191
33 1190
34 1188
35 1179
36 1179
37 1173
38 1167
39 1167
40 1162
41 1162
42 1156
43 1150
44 1146
45 1146
46 1137
47 1136
48 1136
49 1136
